\ENCODING=ISO-8859-1
\Problem name: mknap1_cut_n4

Maximize
 obj1: 600.1 x0 + 310.5 x1 + 1800 x2 + 3850 x3 + 18.6 x4 + 198.7 x5 + 882 x6
       + 4200 x7 + 402.5 x8 + 327 x9
Subject To
 c0:    20 x0 + 5 x1 + 100 x2 + 200 x3 + 2 x4 + 4 x5 + 60 x6 + 150 x7 + 80 x8
        + 40 x9 + s0 <= 450
 c1:    20 x0 + 7 x1 + 130 x2 + 280 x3 + 2 x4 + 8 x5 + 110 x6 + 210 x7 + 100 x8
        + 40 x9 + s1 <= 540
 c2:    60 x0 + 3 x1 + 50 x2 + 100 x3 + 4 x4 + 2 x5 + 20 x6 + 40 x7 + 6 x8
        + 12 x9 + s2 <= 200
 c3:    60 x0 + 8 x1 + 70 x2 + 200 x3 + 4 x4 + 6 x5 + 40 x6 + 70 x7 + 16 x8
        + 20 x9 + s3 <= 360
 c4:    60 x0 + 13 x1 + 70 x2 + 250 x3 + 4 x4 + 10 x5 + 60 x6 + 90 x7 + 20 x8
        + 24 x9 + s4 <= 440
 c5:    60 x0 + 13 x1 + 70 x2 + 280 x3 + 4 x4 + 10 x5 + 70 x6 + 105 x7 + 22 x8
        + 28 x9 + s5 <= 480
 c6:    5 x0 + 2 x1 + 20 x2 + 100 x3 + 2 x4 + 5 x5 + 10 x6 + 60 x7 + s6 <= 200
 c7:    45 x0 + 14 x1 + 80 x2 + 180 x3 + 6 x4 + 10 x5 + 40 x6 + 100 x7 + 20 x8
        + s7 <= 360
 c8:    55 x0 + 14 x1 + 80 x2 + 200 x3 + 6 x4 + 10 x5 + 50 x6 + 140 x7 + 30 x8
        + 40 x9 + s8 <= 440
 c9:    65 x0 + 14 x1 + 80 x2 + 220 x3 + 6 x4 + 10 x5 + 50 x6 + 180 x7 + 30 x8
        + 50 x9 + s9 <= 480
 cut_1: 60 x0 + 7 x1 + 80 x2 + 180 x3 + 4 x4 + 5 x5 + 48 x6 + 116 x7 + 32 x8
        + 29 x9 <= 366
 cut_2: 65 x0 + 13 x1 + 81 x2 + 220 x3 + 5 x4 + 9 x5 + 50 x6 + 178 x7 + 30 x8
        + 49 x9 <= 478
 cut_3: 21 x0 + 7 x1 + 130 x2 + 280 x3 + 2 x4 + 7 x5 + 109 x6 + 209 x7 + 99 x8
        + 40 x9 <= 540
 cut_4: 70 x0 + 14 x1 + 90 x2 + 240 x3 + 6 x4 + 10 x5 + 56 x6 + 191 x7 + 35 x8
        + 52 x9 <= 518
Bounds
 0 <= x0 <= 1
 0 <= x1 <= 1
 0 <= x2 <= 1
 0 <= x3 <= 1
 0 <= x4 <= 1
 0 <= x5 <= 1
 0 <= x6 <= 1
 0 <= x7 <= 1
 0 <= x8 <= 1
 0 <= x9 <= 1
End
